(set-logic QF_AUFBV)
(declare-fun bvlambda_1_ () (_ BitVec 1))
(declare-fun bvlambda_2_ () (_ BitVec 3))
(declare-fun bvlambda_3_ () (_ BitVec 1))
(declare-fun bvlambda_4_ () (_ BitVec 4))
(declare-fun bvlambda_5_ () (_ BitVec 1))
(declare-fun bvlambda_6_ () (_ BitVec 5))
(declare-fun bvlambda_7_ () (_ BitVec 2))
(declare-fun bvlambda_8_ () (_ BitVec 1))
(declare-fun bvlambda_9_ () (_ BitVec 1))
(declare-fun bvlambda_10_ () (_ BitVec 3))
(declare-fun bvlambda_11_ () (_ BitVec 3))
(declare-fun bvlambda_12_ () (_ BitVec 1))
(declare-fun bvlambda_13_ () (_ BitVec 1))
(declare-fun bvlambda_14_ () (_ BitVec 1))
(declare-fun bvlambda_15_ () (_ BitVec 2))
(declare-fun bvlambda_16_ () (_ BitVec 1))
(declare-fun bvlambda_17_ () (_ BitVec 5))
(declare-fun a47 () (Array (_ BitVec 16) (_ BitVec 5)))
(declare-fun a48 () (Array (_ BitVec 1) (_ BitVec 12)))
(declare-fun a49 () (Array (_ BitVec 10) (_ BitVec 16)))
(assert
(let (($e1 (_ bv0 1)))
(let (($e2 (_ bv12826 16)))
(let (($e3 (_ bv0 3)))
(let (($e4 (_ bv28406 16)))
(let (($e5 (_ bv474 12)))
(let (($e6 (_ bv41288 16)))
(let (($e7 (_ bv202 8)))
(let (($e8 (_ bv0 2)))
(let (($e9 (_ bv0 9)))
(let (($e10 (_ bv510 9)))
(let (($e11 (_ bv65534 16)))
(let (($e12 (_ bv0 7)))
(let (($e13 (_ bv0 16)))
(let (($e14 (_ bv0 12)))
(let (($e15 (_ bv4094 12)))
(let (($e16 (_ bv0 10)))
(let (($e17 (_ bv0 5)))
(let (($e18 (_ bv0 4)))
(let (($e19 (_ bv0 15)))
(let (($e20 (_ bv8520 15)))
(let (($e21 (_ bv0 6)))
(let (($e22 (_ bv0 11)))
(let (($e23 (_ bv52708 16)))
(let (($e24 (_ bv0 8)))
(let (($e25 (_ bv474 15)))
(let (($e26 (_ bv61914 16)))
(let (($e27 (_ bv62234 16)))
(let (($e28 (_ bv61440 16)))
(let (($e29 (_ bv4890 13)))
(let (($e50 (concat $e9 bvlambda_9_)))
(let (($e51 (concat $e50 bvlambda_10_)))
(let (($e52 (concat $e51 bvlambda_7_)))
(let (($e53 (concat $e52 bvlambda_8_)))
(let (($e54 (select a47 $e53)))
(let (($e55 (concat $e22 $e54)))
(let (($e56 (bvurem $e55 (bvnot $e23))))
(let (($e57 (bvadd (bvnot $e2) $e56)))
(let (($e58 ((_ extract 0 0) $e57)))
(let (($e59 (ite (= $e13 $e56) #b1 #b0)))
(let (($e60 (bvand (bvnot $e59) $e58)))
(let (($e61 (concat bvlambda_14_ bvlambda_15_)))
(let (($e62 (concat $e61 bvlambda_16_)))
(let (($e63 (concat $e62 bvlambda_17_)))
(let (($e64 (bvadd (bvnot $e10) (bvnot $e63))))
(let (($e65 (ite (= #b1 bvlambda_14_) $e64 $e63)))
(let (($e66 (ite (= $e9 $e65) #b1 #b0)))
(let (($e67 (ite (= #b1 $e66) (bvnot $e9) $e9)))
(let (($e68 (bvadd (bvnot $e10) (bvnot $e67))))
(let (($e69 (ite (= #b1 bvlambda_14_) $e68 $e67)))
(let (($e70 (concat $e3 $e69)))
(let (($e71 (store a48 bvlambda_16_ $e70)))
(let (($e72 (select $e71 bvlambda_12_)))
(let (($e73 ((_ extract 6 6) $e72)))
(let (($e74 (ite (= $e73 $e60) #b1 #b0)))
(let (($e75 ((_ extract 15 1) $e57)))
(let (($e76 (ite (= $e19 $e75) #b1 #b0)))
(let (($e77 (bvand (bvnot $e59) (bvnot $e76))))
(let (($e78 (bvand (bvnot $e77) $e74)))
(let (($e79 (concat $e12 bvlambda_14_)))
(let (($e80 (concat $e79 bvlambda_15_)))
(let (($e81 (concat $e80 bvlambda_16_)))
(let (($e82 (concat $e81 bvlambda_17_)))
(let (($e83 (bvurem $e82 $e4)))
(let (($e84 ((_ extract 14 0) $e83)))
(let (($e85 (ite (bvult (bvnot $e20) $e84) #b1 #b0)))
(let (($e86 ((_ extract 15 15) $e83)))
(let (($e87 (bvand (bvnot $e86) $e85)))
(let (($e88 (concat (bvnot $e19) (bvnot $e87))))
(let (($e89 (concat $e19 (bvnot $e87))))
(let (($e90 (ite (= #b1 $e87) $e89 $e88)))
(let (($e91 (ite (= (bvnot $e6) $e90) #b1 #b0)))
(let (($e92 (bvand $e91 $e78)))
(let (($e93 (concat bvlambda_1_ bvlambda_2_)))
(let (($e94 (concat $e93 bvlambda_3_)))
(let (($e95 (concat $e94 bvlambda_4_)))
(let (($e96 (concat $e95 bvlambda_5_)))
(let (($e97 (concat $e96 bvlambda_6_)))
(let (($e98 (ite (bvult $e25 $e97) #b1 #b0)))
(let (($e99 (concat $e18 bvlambda_9_)))
(let (($e100 (concat $e99 bvlambda_10_)))
(let (($e101 (concat $e100 bvlambda_7_)))
(let (($e102 (concat $e101 bvlambda_8_)))
(let (($e103 (concat $e1 bvlambda_1_)))
(let (($e104 (concat $e103 bvlambda_2_)))
(let (($e105 (concat $e104 bvlambda_3_)))
(let (($e106 (concat $e105 bvlambda_4_)))
(let (($e107 (concat $e106 bvlambda_5_)))
(let (($e108 (concat $e107 bvlambda_6_)))
(let (($e109 (select a47 $e108)))
(let (($e110 (concat $e21 $e109)))
(let (($e111 (ite (bvult $e110 $e102) #b1 #b0)))
(let (($e112 (ite (= $e111 (bvnot $e98)) #b1 #b0)))
(let (($e113 (ite (= (bvnot $e112) $e92) #b1 #b0)))
(let (($e114 (concat $e12 bvlambda_11_)))
(let (($e115 (concat $e114 bvlambda_12_)))
(let (($e116 (concat $e115 bvlambda_13_)))
(let (($e117 (ite (bvult $e116 $e5) #b1 #b0)))
(let (($e118 (concat (bvnot $e22) (bvnot $e117))))
(let (($e119 (concat $e22 (bvnot $e117))))
(let (($e120 (ite (= #b1 $e117) $e119 $e118)))
(let (($e121 ((_ extract 10 10) $e83)))
(let (($e122 (store a48 $e121 (bvnot $e15))))
(let (($e123 (store $e122 bvlambda_14_ $e14)))
(let (($e124 (select $e123 bvlambda_5_)))
(let (($e125 (bvand $e124 $e120)))
(let (($e126 (concat $e17 bvlambda_9_)))
(let (($e127 (concat $e126 bvlambda_10_)))
(let (($e128 (concat $e127 bvlambda_7_)))
(let (($e129 (concat $e128 bvlambda_8_)))
(let (($e130 (store a48 $e1 $e129)))
(let (($e131 (select $e130 bvlambda_3_)))
(let (($e132 ((_ extract 10 10) $e131)))
(let (($e133 (store a48 $e1 (bvnot $e14))))
(let (($e134 (select $e133 $e132)))
(let (($e135 (ite (= $e134 $e125) #b1 #b0)))
(let (($e136 (concat $e16 (bvnot $e135))))
(let (($e137 ((_ extract 10 0) $e134)))
(let (($e138 (ite (bvult $e137 $e136) #b1 #b0)))
(let (($e139 ((_ extract 11 11) $e134)))
(let (($e140 (bvand (bvnot $e139) (bvnot $e138))))
(let (($e141 (ite (= (bvnot $e140) $e113) #b1 #b0)))
(let (($e142 (concat $e8 $e72)))
(let (($e143 (concat (bvnot $e8) $e72)))
(let (($e144 ((_ extract 11 11) $e72)))
(let (($e145 (ite (= #b1 $e144) $e143 $e142)))
(let (($e146 ((_ extract 12 0) $e145)))
(let (($e147 (ite (bvult $e146 (bvnot $e29)) #b1 #b0)))
(let (($e148 ((_ extract 13 13) $e145)))
(let (($e149 (bvand (bvnot $e148) (bvnot $e147))))
(let (($e150 ((_ extract 4 4) $e109)))
(let (($e151 (bvand (bvnot $e150) $e149)))
(let (($e152 (concat $e16 $e73)))
(let (($e153 ((_ extract 10 0) $e124)))
(let (($e154 (ite (bvult $e153 $e152) #b1 #b0)))
(let (($e155 ((_ extract 11 11) $e124)))
(let (($e156 (bvand (bvnot $e155) (bvnot $e154))))
(let (($e157 (bvand (bvnot $e156) (bvnot $e151))))
(let (($e158 (select a47 (bvnot $e2))))
(let (($e159 (concat $e3 $e158)))
(let (($e160 (concat (bvnot $e3) $e158)))
(let (($e161 ((_ extract 4 4) $e158)))
(let (($e162 (ite (= #b1 $e161) $e160 $e159)))
(let (($e163 (ite (= (bvnot $e7) $e162) #b1 #b0)))
(let (($e164 (concat (bvnot $e19) (bvnot $e163))))
(let (($e165 (concat $e19 (bvnot $e163))))
(let (($e166 (ite (= #b1 $e163) $e165 $e164)))
(let (($e167 (ite (= (bvnot $e13) $e166) #b1 #b0)))
(let (($e168 (bvand (bvnot $e167) (bvnot $e157))))
(let (($e169 (bvand (bvnot $e168) $e141)))
(let (($e170 ((_ extract 10 0) $e125)))
(let (($e171 (ite (= (bvnot $e22) $e170) #b1 #b0)))
(let (($e172 ((_ extract 11 11) $e125)))
(let (($e173 (bvand $e172 (bvnot $e171))))
(let (($e174 (concat $e3 bvlambda_9_)))
(let (($e175 (concat $e174 bvlambda_10_)))
(let (($e176 (concat (bvnot $e3) bvlambda_9_)))
(let (($e177 (concat $e176 bvlambda_10_)))
(let (($e178 (ite (= #b1 bvlambda_9_) $e177 $e175)))
(let (($e179 (concat $e178 bvlambda_7_)))
(let (($e180 (concat $e179 bvlambda_8_)))
(let (($e181 (store a49 $e16 $e13)))
(let (($e182 (select $e181 $e180)))
(let (($e183 ((_ extract 15 15) $e182)))
(let (($e184 (ite (= $e183 (bvnot $e173)) #b1 #b0)))
(let (($e185 (select $e123 $e1)))
(let (($e186 (concat $e18 $e185)))
(let (($e187 (concat (bvnot $e18) $e185)))
(let (($e188 ((_ extract 11 11) $e185)))
(let (($e189 (ite (= #b1 $e188) $e187 $e186)))
(let (($e190 ((_ extract 15 15) $e189)))
(let (($e191 (concat $e19 $e190)))
(let (($e192 (concat (bvnot $e19) $e190)))
(let (($e193 (ite (= #b1 $e190) $e192 $e191)))
(let (($e194 ((_ extract 3 0) $e83)))
(let (($e195 (bvlshr $e189  ((_ zero_extend 12) $e194))))
(let (($e196 (bvlshr (bvnot $e189)  ((_ zero_extend 12) $e194))))
(let (($e197 (ite (= #b1 $e190) (bvnot $e196) $e195)))
(let (($e198 ((_ extract 15 4) $e83)))
(let (($e199 (ite (= $e14 $e198) #b1 #b0)))
(let (($e200 (ite (= #b1 $e199) $e197 $e193)))
(let (($e201 (concat $e12 $e158)))
(let (($e202 (concat (bvnot $e12) $e158)))
(let (($e203 (ite (= #b1 $e161) $e202 $e201)))
(let (($e204 (bvadd $e203 $e131)))
(let (($e205 (concat $e18 $e204)))
(let (($e206 (ite (bvult $e205 $e200) #b1 #b0)))
(let (($e207 (bvand (bvnot $e206) $e184)))
(let (($e208 ((_ extract 12 3) $e83)))
(let (($e209 (select $e181 $e208)))
(let (($e210 (concat $e22 $e158)))
(let (($e211 (concat (bvnot $e22) $e158)))
(let (($e212 (ite (= #b1 $e161) $e211 $e210)))
(let (($e213 (ite (bvult $e212 $e209) #b1 #b0)))
(let (($e214 (ite (= bvlambda_8_ $e111) #b1 #b0)))
(let (($e215 (ite (= $e3 bvlambda_10_) #b1 #b0)))
(let (($e216 (bvand (bvnot bvlambda_9_) $e215)))
(let (($e217 (ite (= $e8 bvlambda_7_) #b1 #b0)))
(let (($e218 (bvand $e217 $e216)))
(let (($e219 (bvand $e218 $e214)))
(let (($e220 (bvand (bvnot $e219) (bvnot $e213))))
(let (($e221 (ite (bvult $e129 $e124) #b1 #b0)))
(let (($e222 (concat $e18 $e124)))
(let (($e223 (concat (bvnot $e18) $e124)))
(let (($e224 (ite (= #b1 $e155) $e223 $e222)))
(let (($e225 (bvadd (bvnot $e11) (bvnot $e224))))
(let (($e226 ((_ extract 15 15) $e224)))
(let (($e227 (ite (= #b1 $e226) $e225 $e224)))
(let (($e228 (bvurem $e227 $e4)))
(let (($e229 (bvadd (bvnot $e11) (bvnot $e228))))
(let (($e230 (ite (= #b1 $e226) $e229 $e228)))
(let (($e231 (ite (bvult $e230 (bvnot $e27)) #b1 #b0)))
(let (($e232 (ite (= $e231 $e221) #b1 #b0)))
(let (($e233 (concat $e3 $e204)))
(let (($e234 (concat (bvnot $e3) $e204)))
(let (($e235 ((_ extract 11 11) $e204)))
(let (($e236 (ite (= #b1 $e235) $e234 $e233)))
(let (($e237 ((_ extract 14 14) $e236)))
(let (($e238 (ite (= bvlambda_1_ $e237) #b1 #b0)))
(let (($e239 ((_ extract 13 0) $e236)))
(let (($e240 (concat bvlambda_2_ bvlambda_3_)))
(let (($e241 (concat $e240 bvlambda_4_)))
(let (($e242 (concat $e241 bvlambda_5_)))
(let (($e243 (concat $e242 bvlambda_6_)))
(let (($e244 (ite (bvult $e243 $e239) #b1 #b0)))
(let (($e245 (bvand $e244 $e238)))
(let (($e246 (bvand bvlambda_1_ (bvnot $e237))))
(let (($e247 (bvand (bvnot $e246) (bvnot $e245))))
(let (($e248 (bvand (bvnot $e247) $e232)))
(let (($e249 (ite (= $e14 $e204) #b1 #b0)))
(let (($e250 (bvand (bvnot $e249) $e248)))
(let (($e251 (bvand (bvnot $e250) (bvnot $e220))))
(let (($e252 (ite (= (bvnot $e251) $e207) #b1 #b0)))
(let (($e253 (bvand (bvnot $e252) $e169)))
(let (($e254 (concat $e18 $e134)))
(let (($e255 (concat (bvnot $e18) $e134)))
(let (($e256 (ite (= #b1 $e139) $e255 $e254)))
(let (($e257 ((_ extract 14 0) $e256)))
(let (($e258 (ite (= (bvnot $e19) $e257) #b1 #b0)))
(let (($e259 ((_ extract 15 15) $e256)))
(let (($e260 (bvand $e259 (bvnot $e258))))
(let (($e261 (bvand (bvnot $e260) $e252)))
(let (($e262 (bvand (bvnot $e261) (bvnot $e253))))
(let (($e263 ((_ extract 3 0) $e158)))
(let (($e264 (ite (= $e86 $e183) #b1 #b0)))
(let (($e265 ((_ extract 14 0) $e182)))
(let (($e266 (ite (bvult $e265 $e84) #b1 #b0)))
(let (($e267 (bvand $e266 $e264)))
(let (($e268 (bvand (bvnot $e86) $e183)))
(let (($e269 (bvand (bvnot $e268) (bvnot $e267))))
(let (($e270 (concat $e3 $e269)))
(let (($e271 (ite (bvult $e270 $e263) #b1 #b0)))
(let (($e272 (bvand (bvnot $e161) $e271)))
(let (($e273 (ite (= $e203 $e125) #b1 #b0)))
(let (($e274 (ite (= $e273 (bvnot $e272)) #b1 #b0)))
(let (($e275 (ite (= $e274 $e262) #b1 #b0)))
(let (($e276 (select $e122 $e1)))
(let (($e277 (concat (bvnot $e18) $e276)))
(let (($e278 (bvand $e26 $e277)))
(let (($e279 (ite (bvult (bvnot $e278) $e209) #b1 #b0)))
(let (($e280 (concat $e18 $e269)))
(let (($e281 (concat (bvnot $e18) $e269)))
(let (($e282 (ite (= #b1 $e269) $e281 $e280)))
(let (($e283 (ite (bvult $e282 $e54) #b1 #b0)))
(let (($e284 (bvand $e283 $e279)))
(let (($e285 (ite (bvult (bvnot $e27) $e182) #b1 #b0)))
(let (($e286 (ite (bvult $e102 $e153) #b1 #b0)))
(let (($e287 (bvand (bvnot $e155) $e286)))
(let (($e288 (bvand (bvnot $e287) $e285)))
(let (($e289 (select a49 $e16)))
(let (($e290 ((_ extract 7 7) $e289)))
(let (($e291 (select $e130 $e290)))
(let (($e292 ((_ extract 11 11) $e291)))
(let (($e293 (select a48 (bvnot $e1))))
(let (($e294 ((_ extract 3 3) $e54)))
(let (($e295 (store $e133 $e294 $e293)))
(let (($e296 (select $e295 $e1)))
(let (($e297 ((_ extract 3 0) $e296)))
(let (($e298 (concat $e18 $e291)))
(let (($e299 (bvshl $e298  ((_ zero_extend 12) $e297))))
(let (($e300 ((_ extract 11 11) $e299)))
(let (($e301 ((_ extract 11 4) $e296)))
(let (($e302 (ite (= $e24 $e301) #b1 #b0)))
(let (($e303 (bvand $e302 $e300)))
(let (($e304 ((_ extract 11 11) $e293)))
(let (($e305 (ite (= $e304 $e303) #b1 #b0)))
(let (($e306 ((_ extract 10 0) $e293)))
(let (($e307 ((_ extract 10 0) $e299)))
(let (($e308 (ite (= #b1 $e302) $e307 $e22)))
(let (($e309 (ite (bvult $e308 $e306) #b1 #b0)))
(let (($e310 (bvand $e309 $e305)))
(let (($e311 (bvand (bvnot $e304) $e303)))
(let (($e312 (bvand (bvnot $e311) (bvnot $e310))))
(let (($e313 (concat (bvnot $e22) (bvnot $e312))))
(let (($e314 (concat $e22 (bvnot $e312))))
(let (($e315 (ite (= #b1 $e312) $e314 $e313)))
(let (($e316 ((_ extract 11 11) $e315)))
(let (($e317 (ite (= $e316 $e292) #b1 #b0)))
(let (($e318 ((_ extract 10 0) $e291)))
(let (($e319 ((_ extract 10 0) $e315)))
(let (($e320 (ite (bvult $e319 $e318) #b1 #b0)))
(let (($e321 (bvand $e320 $e317)))
(let (($e322 (bvand $e316 (bvnot $e292))))
(let (($e323 (bvand (bvnot $e322) (bvnot $e321))))
(let (($e324 (bvand (bvnot $e323) $e287)))
(let (($e325 (bvand (bvnot $e324) (bvnot $e288))))
(let (($e326 (concat $e19 (bvnot $e312))))
(let (($e327 (ite (bvult $e182 $e326) #b1 #b0)))
(let (($e328 (concat (bvnot $e22) (bvnot $e327))))
(let (($e329 (concat $e22 (bvnot $e327))))
(let (($e330 (ite (= #b1 $e327) $e329 $e328)))
(let (($e331 (ite (= $e125 $e330) #b1 #b0)))
(let (($e332 (bvand (bvnot $e331) (bvnot $e325))))
(let (($e333 ((_ extract 11 0) $e299)))
(let (($e334 (concat $e18 $e333)))
(let (($e335 (ite (= #b1 $e302) $e334 $e13)))
(let (($e336 (concat (bvnot $e18) $e333)))
(let (($e337 (ite (= #b1 $e302) $e336 $e28)))
(let (($e338 (ite (= #b1 $e303) $e337 $e335)))
(let (($e339 (ite (= $e13 $e338) #b1 #b0)))
(let (($e340 (bvand $e331 (bvnot $e339))))
(let (($e341 (bvand (bvnot $e340) (bvnot $e332))))
(let (($e342 (bvand (bvnot $e341) (bvnot $e284))))
(let (($e343 (concat $e18 $e131)))
(let (($e344 (concat (bvnot $e18) $e131)))
(let (($e345 ((_ extract 11 11) $e131)))
(let (($e346 (ite (= #b1 $e345) $e344 $e343)))
(let (($e347 ((_ extract 14 0) $e346)))
(let (($e348 (ite (= $e19 (bvnot $e347)) #b1 #b0)))
(let (($e349 ((_ extract 15 15) $e346)))
(let (($e350 (bvand $e349 (bvnot $e348))))
(let (($e351 (bvand $e350 $e342)))
(let (($e352 ((_ extract 15 15) $e90)))
(let (($e353 ((_ extract 15 15) $e209)))
(let (($e354 (ite (= $e353 $e352) #b1 #b0)))
(let (($e355 ((_ extract 14 0) $e209)))
(let (($e356 ((_ extract 14 0) $e90)))
(let (($e357 (ite (bvult $e356 $e355) #b1 #b0)))
(let (($e358 (bvand $e357 $e354)))
(let (($e359 (bvand (bvnot $e353) $e352)))
(let (($e360 (bvand (bvnot $e359) (bvnot $e358))))
(let (($e361 (ite (bvult (bvnot $e15) $e72) #b1 #b0)))
(let (($e362 (bvand $e361 $e360)))
(let (($e363 (ite (= #b1 $e302) $e333 $e14)))
(let (($e364 (concat $e22 (bvnot $e135))))
(let (($e365 (ite (bvult $e364 $e363) #b1 #b0)))
(let (($e366 (concat $e18 $e365)))
(let (($e367 (concat (bvnot $e18) $e365)))
(let (($e368 (ite (= #b1 $e365) $e367 $e366)))
(let (($e369 ((_ extract 4 4) $e368)))
(let (($e370 ((_ extract 4 4) $e54)))
(let (($e371 (ite (= $e370 $e369) #b1 #b0)))
(let (($e372 ((_ extract 3 0) $e368)))
(let (($e373 ((_ extract 3 0) $e54)))
(let (($e374 (ite (bvult $e373 $e372) #b1 #b0)))
(let (($e375 (bvand $e374 $e371)))
(let (($e376 (bvand $e370 (bvnot $e369))))
(let (($e377 (bvand (bvnot $e376) (bvnot $e375))))
(let (($e378 (bvand $e377 (bvnot $e362))))
(let (($e379 ((_ extract 11 11) $e296)))
(let (($e380 (ite (= $e155 $e379) #b1 #b0)))
(let (($e381 ((_ extract 10 0) $e296)))
(let (($e382 (ite (bvult $e153 $e381) #b1 #b0)))
(let (($e383 (bvand $e382 $e380)))
(let (($e384 (bvand $e155 (bvnot $e379))))
(let (($e385 (bvand (bvnot $e384) (bvnot $e383))))
(let (($e386 (bvand $e385 $e378)))
(let (($e387 (ite (= $e13 $e289) #b1 #b0)))
(let (($e388 (bvand (bvnot $e387) $e386)))
(let (($e389 (ite (= (bvnot $e388) $e351) #b1 #b0)))
(let (($e390 (ite (= $e17 bvlambda_17_) #b1 #b0)))
(let (($e391 (ite (= $e8 bvlambda_15_) #b1 #b0)))
(let (($e392 (bvand (bvnot bvlambda_14_) $e391)))
(let (($e393 (bvand (bvnot bvlambda_16_) $e392)))
(let (($e394 (bvand $e393 $e390)))
(let (($e395 (ite (= (bvnot $e17) bvlambda_17_) #b1 #b0)))
(let (($e396 (ite (= (bvnot $e8) bvlambda_15_) #b1 #b0)))
(let (($e397 (bvand bvlambda_14_ $e396)))
(let (($e398 (bvand bvlambda_16_ $e397)))
(let (($e399 (bvand $e398 $e395)))
(let (($e400 (ite (= $e3 bvlambda_11_) #b1 #b0)))
(let (($e401 (bvand (bvnot bvlambda_12_) $e400)))
(let (($e402 (bvand (bvnot bvlambda_13_) $e401)))
(let (($e403 (ite (= (bvnot $e3) bvlambda_11_) #b1 #b0)))
(let (($e404 (bvand bvlambda_12_ $e403)))
(let (($e405 (bvand bvlambda_13_ $e404)))
(let (($e406 (bvand (bvnot bvlambda_8_) $e217)))
(let (($e407 (bvand (bvnot bvlambda_9_) $e406)))
(let (($e408 (bvand $e407 $e215)))
(let (($e409 (ite (= (bvnot $e3) bvlambda_10_) #b1 #b0)))
(let (($e410 (ite (= (bvnot $e8) bvlambda_7_) #b1 #b0)))
(let (($e411 (bvand bvlambda_8_ $e410)))
(let (($e412 (bvand bvlambda_9_ $e411)))
(let (($e413 (bvand $e412 $e409)))
(let (($e414 (bvand (bvnot $e413) (bvnot $e408))))
(let (($e415 (bvand $e414 (bvnot $e405))))
(let (($e416 (bvand $e415 (bvnot $e402))))
(let (($e417 (bvand $e416 (bvnot $e399))))
(let (($e418 (bvand $e417 (bvnot $e394))))
(let (($e419 (bvand $e418 $e389)))
(let (($e420 (bvand $e419 $e275)))
 (not (= $e420 #b0)))))))))))))))))))))))))))))))))))))))))))))))))))))))))))))))))))))))))))))))))))))))))))))))))))))))))))))))))))))))))))))))))))))))))))))))))))))))))))))))))))))))))))))))))))))))))))))))))))))))))))))))))))))))))))))))))))))))))))))))))))))))))))))))))))))))))))))))))))))))))))))))))))))))))))))))))))))))))))))))))))))))))))))))))))))))))))))))))))))))))))))))))))))))))))))))))))))))))))))))))))
(check-sat)
(exit)
